src/Chronos/4.1/benchmarks/edn/edn.lp
Maximize

345 dSta_0 + 1 d0_1 + 12 d0_1 + 0 d0_1.0 + 30 d0_1.0 + 66 d0_1 + 0 d0_1.0 + 180 d0_1.0 + 1 d0_4 + 12 d0_4 + 0 d0_4.0 + 30 d0_4.0 + 66 d0_4 + 0 d0_4.0 + 180 d0_4.0 + 35 d1_2 + 0 d1_2 + 0 d1_2.0 + 0 d1_2.0 + 6 d1_2 + 0 d1_2.0 + 30 d1_2.0 + 1 d2_3 + 48 d2_3 + 1200 d2_3.0 + 6000 d2_3.0 + 36 d2_3 + 78 d2_3.0 + 510 d2_3.0 + 35 d2_2 + 48 d2_2 + 1200 d2_2.0 + 6000 d2_2.0 + 36 d2_2 + 78 d2_2.0 + 510 d2_2.0 + 6 d3_6 + 0 d3_6 + 0 d3_6.0 + 0 d3_6.0 + 6 d3_6 + 0 d3_6.0 + 30 d3_6.0 + 19 d4_5 + 0 d4_5 + 0 d4_5.0 + 0 d4_5.0 + 6 d4_5 + 0 d4_5.0 + 30 d4_5.0 + 6 d5_6 + 24 d5_6 + 600 d5_6.0 + 3000 d5_6.0 + 0 d5_6 + 66 d5_6.0 + 330 d5_6.0 + 19 d5_5 + 24 d5_5 + 600 d5_5.0 + 3000 d5_5.0 + 0 d5_5 + 66 d5_5.0 + 330 d5_5.0 + 1 d6_7 + 0 d6_7 + 0 d6_7.0 + 0 d6_7.0 + 36 d6_7 + 0 d6_7.0 + 120 d6_7.0 + 1 d6_10 + 0 d6_10 + 0 d6_10.0 + 0 d6_10.0 + 36 d6_10 + 0 d6_10.0 + 120 d6_10.0 + 35 d7_8 + 0 d7_8 + 0 d7_8.0 + 0 d7_8.0 + 6 d7_8 + 0 d7_8.0 + 30 d7_8.0 + 1 d8_9 + 48 d8_9 + 1200 d8_9.0 + 6000 d8_9.0 + 36 d8_9 + 78 d8_9.0 + 480 d8_9.0 + 35 d8_8 + 48 d8_8 + 1200 d8_8.0 + 6000 d8_8.0 + 36 d8_8 + 78 d8_8.0 + 480 d8_8.0 + 5 d9_12 + 0 d9_12 + 0 d9_12.0 + 0 d9_12.0 + 6 d9_12 + 0 d9_12.0 + 30 d9_12.0 + 19 d10_11 + 0 d10_11 + 0 d10_11.0 + 0 d10_11.0 + 6 d10_11 + 0 d10_11.0 + 30 d10_11.0 + 5 d11_12 + 24 d11_12 + 600 d11_12.0 + 3000 d11_12.0 + 0 d11_12 + 66 d11_12.0 + 330 d11_12.0 + 19 d11_11 + 24 d11_11 + 600 d11_11.0 + 3000 d11_11.0 + 0 d11_11 + 66 d11_11.0 + 330 d11_11.0 + 3 d12_21 + 0 d12_21 + 0 d12_21.0 + 0 d12_21.0 + 30 d12_21 + 0 d12_21.0 + 90 d12_21.0 + 3 d13_24 + 0 d13_24 + 0 d13_24.0 + 0 d13_24.0 + 36 d13_24 + 0 d13_24.0 + 120 d13_24.0 + 1 d14_27 + 0 d14_27 + 0 d14_27.0 + 0 d14_27.0 + 30 d14_27 + 0 d14_27.0 + 90 d14_27.0 + 4 d15_32 + 0 d15_32 + 0 d15_32.0 + 0 d15_32.0 + 24 d15_32 + 0 d15_32.0 + 60 d15_32.0 + 17 d16_37 + 0 d16_37 + 0 d16_37.0 + 0 d16_37.0 + 30 d16_37 + 0 d16_37.0 + 90 d16_37.0 + 6 d17_41 + 0 d17_41 + 0 d17_41.0 + 0 d17_41.0 + 36 d17_41 + 0 d17_41.0 + 120 d17_41.0 + 3 d18_44 + 12 d18_44 + 0 d18_44.0 + 30 d18_44.0 + 78 d18_44 + 0 d18_44.0 + 210 d18_44.0 + 24 d19_46 + 0 d19_46 + 0 d19_46.0 + 0 d19_46.0 + 18 d19_46 + 0 d19_46.0 + 60 d19_46.0 + 17 d21_22 + 0 d21_22 + 0 d21_22.0 + 0 d21_22.0 + 18 d21_22 + 0 d21_22.0 + 60 d21_22.0 + 1 d22_23 + 12 d22_23 + 228 d22_23.0 + 1140 d22_23.0 + 0 d22_23 + 72 d22_23.0 + 360 d22_23.0 + 17 d22_22 + 12 d22_22 + 228 d22_22.0 + 1140 d22_22.0 + 0 d22_22 + 72 d22_22.0 + 360 d22_22.0 + 6 d23_13 + 0 d23_13 + 0 d23_13.0 + 0 d23_13.0 + 6 d23_13 + 0 d23_13.0 + 30 d23_13.0 + 21 d24_25 + 6 d24_25 + 0 d24_25.0 + 30 d24_25.0 + 12 d24_25 + 0 d24_25.0 + 30 d24_25.0 + 4 d25_26 + 12 d25_26 + 0 d25_26.0 + 1140 d25_26.0 + 0 d25_26 + 78 d25_26.0 + 390 d25_26.0 + 21 d25_25 + 12 d25_25 + 0 d25_25.0 + 1140 d25_25.0 + 0 d25_25 + 78 d25_25.0 + 390 d25_25.0 + 5 d26_14 + 6 d26_14 + 0 d26_14.0 + 30 d26_14.0 + 18 d26_14 + 0 d26_14.0 + 60 d26_14.0 + 3 d27_28 + 0 d27_28 + 0 d27_28.0 + 0 d27_28.0 + 6 d27_28 + 0 d27_28.0 + 30 d27_28.0 + 17 d28_29 + 0 d28_29 + 0 d28_29.0 + 0 d28_29.0 + 18 d28_29 + 0 d28_29.0 + 60 d28_29.0 + 7 d29_30 + 12 d29_30 + 0 d29_30.0 + 600 d29_30.0 + 0 d29_30 + 72 d29_30.0 + 360 d29_30.0 + 17 d29_29 + 12 d29_29 + 0 d29_29.0 + 600 d29_29.0 + 0 d29_29 + 72 d29_29.0 + 360 d29_29.0 + 1 d30_31 + 0 d30_31 + 150 d30_31.0 + 0 d30_31.0 + 30 d30_31 + 6 d30_31.0 + 120 d30_31.0 + 3 d30_28 + 0 d30_28 + 150 d30_28.0 + 0 d30_28.0 + 30 d30_28 + 6 d30_28.0 + 120 d30_28.0 + 4 d31_15 + 0 d31_15 + 0 d31_15.0 + 0 d31_15.0 + 6 d31_15 + 0 d31_15.0 + 30 d31_15.0 + 6 d32_33 + 0 d32_33 + 0 d32_33.0 + 0 d32_33.0 + 24 d32_33 + 0 d32_33.0 + 90 d32_33.0 + 35 d33_34 + 6 d33_34 + 0 d33_34.0 + 390 d33_34.0 + 30 d33_34 + 0 d33_34.0 + 90 d33_34.0 + 11 d34_35 + 30 d34_35 + 0 d34_35.0 + 3030 d34_35.0 + 120 d34_35 + 36 d34_35.0 + 480 d34_35.0 + 35 d34_34 + 30 d34_34 + 0 d34_34.0 + 3030 d34_34.0 + 120 d34_34 + 36 d34_34.0 + 480 d34_34.0 + 2 d35_36 + 0 d35_36 + 600 d35_36.0 + 0 d35_36.0 + 54 d35_36 + 0 d35_36.0 + 150 d35_36.0 + 6 d35_33 + 0 d35_33 + 600 d35_33.0 + 0 d35_33.0 + 54 d35_33 + 0 d35_33.0 + 150 d35_33.0 + 5 d36_16 + 0 d36_16 + 0 d36_16.0 + 0 d36_16.0 + 12 d36_16 + 0 d36_16.0 + 60 d36_16.0 + 3 d37_38 + 12 d37_38 + 0 d37_38.0 + 60 d37_38.0 + 72 d37_38 + 0 d37_38.0 + 210 d37_38.0 + 6 d37_40 + 12 d37_40 + 0 d37_40.0 + 60 d37_40.0 + 72 d37_40 + 0 d37_40.0 + 210 d37_40.0 + 24 d38_39 + 0 d38_39 + 0 d38_39.0 + 0 d38_39.0 + 18 d38_39 + 0 d38_39.0 + 60 d38_39.0 + 6 d39_40 + 18 d39_40 + 0 d39_40.0 + 1170 d39_40.0 + 0 d39_40 + 90 d39_40.0 + 450 d39_40.0 + 24 d39_39 + 18 d39_39 + 0 d39_39.0 + 1170 d39_39.0 + 0 d39_39 + 90 d39_39.0 + 450 d39_39.0 + 6 d40_17 + 6 d40_17 + 0 d40_17.0 + 30 d40_17.0 + 30 d40_17 + 0 d40_17.0 + 90 d40_17.0 + 40 d41_42 + 6 d41_42 + 0 d41_42.0 + 30 d41_42.0 + 30 d41_42 + 0 d41_42.0 + 90 d41_42.0 + 3 d42_43 + 48 d42_43 + 0 d42_43.0 + 6000 d42_43.0 + 156 d42_43 + 18 d42_43.0 + 510 d42_43.0 + 40 d42_42 + 48 d42_42 + 0 d42_42.0 + 6000 d42_42.0 + 156 d42_42 + 18 d42_42.0 + 510 d42_42.0 + 17 d43_18 + 6 d43_18 + 0 d43_18.0 + 30 d43_18.0 + 12 d43_18 + 0 d43_18.0 + 30 d43_18.0 + 3 d44_45 + 0 d44_45 + 0 d44_45.0 + 0 d44_45.0 + 0 d44_45 + 18 d44_45.0 + 90 d44_45.0 + 3 d44_44 + 0 d44_44 + 0 d44_44.0 + 0 d44_44.0 + 0 d44_44 + 18 d44_44.0 + 90 d44_44.0 + 3 d45_19 + 0 d45_19 + 6 d45_19.0 + 0 d45_19.0 + 12 d45_19 + 0 d45_19.0 + 60 d45_19.0 + 18 d46_47 + 30 d46_47 + 0 d46_47.0 + 90 d46_47.0 + 96 d46_47 + 0 d46_47.0 + 270 d46_47.0 + 2 d47_48 + 0 d47_48 + 6 d47_48.0 + 0 d47_48.0 + 102 d47_48 + 0 d47_48.0 + 270 d47_48.0 + 39 d48_49 + 0 d48_49 + 0 d48_49.0 + 0 d48_49.0 + 6 d48_49 + 0 d48_49.0 + 30 d48_49.0 + 232 d49_50 + 24 d49_50 + 12 d49_50.0 + 1560 d49_50.0 + 168 d49_50 + 12 d49_50.0 + 510 d49_50.0 + 39 d49_49 + 24 d49_49 + 12 d49_49.0 + 1560 d49_49.0 + 168 d49_49 + 12 d49_49.0 + 510 d49_49.0 + 10 d50_51 + 84 d50_51 + 48 d50_51.0 + 3180 d50_51.0 + 894 d50_51 + 0 d50_51.0 + 2250 d50_51.0 + 1 d50_48 + 84 d50_48 + 48 d50_48.0 + 3180 d50_48.0 + 894 d50_48 + 0 d50_48.0 + 2250 d50_48.0 + 20 d51_52 + 0 d51_52 + 0 d51_52.0 + 0 d51_52.0 + 60 d51_52 + 0 d51_52.0 + 150 d51_52.0 + 17 d51_47 + 0 d51_47 + 0 d51_47.0 + 0 d51_47.0 + 60 d51_47 + 0 d51_47.0 + 150 d51_47.0 + 11 d52_20 + 0 d52_20 + 30 d52_20.0 + 0 d52_20.0 + 66 d52_20 + 0 d52_20.0 + 180 d52_20.0


Subject to


\ === tcfg constraints ===
dSta_0 = 1
b0 - d0_1 - d0_4 = 0
b0 - dSta_0 = 0
b1 - d1_2 = 0
b1 - d0_1 = 0
b2 - d2_3 - d2_2 = 0
b2 - d1_2 - d2_2 = 0
b3 - d3_6 = 0
b3 - d2_3 = 0
b4 - d4_5 = 0
b4 - d0_4 = 0
b5 - d5_6 - d5_5 = 0
b5 - d4_5 - d5_5 = 0
b6 - d6_7 - d6_10 = 0
b6 - d3_6 - d5_6 = 0
b7 - d7_8 = 0
b7 - d6_7 = 0
b8 - d8_9 - d8_8 = 0
b8 - d7_8 - d8_8 = 0
b9 - d9_12 = 0
b9 - d8_9 = 0
b10 - d10_11 = 0
b10 - d6_10 = 0
b11 - d11_12 - d11_11 = 0
b11 - d10_11 - d11_11 = 0
b12 - d12_21 = 0
b12 - d9_12 - d11_12 = 0
b13 - d13_24 = 0
b13 - d23_13 = 0
b14 - d14_27 = 0
b14 - d26_14 = 0
b15 - d15_32 = 0
b15 - d31_15 = 0
b16 - d16_37 = 0
b16 - d36_16 = 0
b17 - d17_41 = 0
b17 - d40_17 = 0
b18 - d18_44 = 0
b18 - d43_18 = 0
b19 - d19_46 = 0
b19 - d45_19 = 0
b20 - d52_20 = 0
b21 - d21_22 = 0
b21 - d12_21 = 0
b22 - d22_23 - d22_22 = 0
b22 - d21_22 - d22_22 = 0
b23 - d23_13 = 0
b23 - d22_23 = 0
b24 - d24_25 = 0
b24 - d13_24 = 0
b25 - d25_26 - d25_25 = 0
b25 - d24_25 - d25_25 = 0
b26 - d26_14 = 0
b26 - d25_26 = 0
b27 - d27_28 = 0
b27 - d14_27 = 0
b28 - d28_29 = 0
b28 - d27_28 - d30_28 = 0
b29 - d29_30 - d29_29 = 0
b29 - d28_29 - d29_29 = 0
b30 - d30_31 - d30_28 = 0
b30 - d29_30 = 0
b31 - d31_15 = 0
b31 - d30_31 = 0
b32 - d32_33 = 0
b32 - d15_32 = 0
b33 - d33_34 = 0
b33 - d32_33 - d35_33 = 0
b34 - d34_35 - d34_34 = 0
b34 - d33_34 - d34_34 = 0
b35 - d35_36 - d35_33 = 0
b35 - d34_35 = 0
b36 - d36_16 = 0
b36 - d35_36 = 0
b37 - d37_38 - d37_40 = 0
b37 - d16_37 = 0
b38 - d38_39 = 0
b38 - d37_38 = 0
b39 - d39_40 - d39_39 = 0
b39 - d38_39 - d39_39 = 0
b40 - d40_17 = 0
b40 - d37_40 - d39_40 = 0
b41 - d41_42 = 0
b41 - d17_41 = 0
b42 - d42_43 - d42_42 = 0
b42 - d41_42 - d42_42 = 0
b43 - d43_18 = 0
b43 - d42_43 = 0
b44 - d44_45 - d44_44 = 0
b44 - d18_44 - d44_44 = 0
b45 - d45_19 = 0
b45 - d44_45 = 0
b46 - d46_47 = 0
b46 - d19_46 = 0
b47 - d47_48 = 0
b47 - d46_47 - d51_47 = 0
b48 - d48_49 = 0
b48 - d47_48 - d50_48 = 0
b49 - d49_50 - d49_49 = 0
b49 - d48_49 - d49_49 = 0
b50 - d50_51 - d50_48 = 0
b50 - d49_50 = 0
b51 - d51_52 - d51_47 = 0
b51 - d50_51 = 0
b52 - d52_20 = 0
b52 - d51_52 = 0


\ === tcfg_estunit_cons_ps ===
d0_1 - d0_1.0 >= 0
d0_1.0 <= 1
d0_4 - d0_4.0 >= 0
d0_4.0 <= 1
d1_2 - d1_2.0 >= 0
d1_2.0 <= 1
d2_3 - d2_3.0 >= 0
d2_3.0 <= 1
d2_2 - d2_2.0 >= 0
d2_2.0 <= 1
d3_6 - d3_6.0 >= 0
d3_6.0 <= 1
d4_5 - d4_5.0 >= 0
d4_5.0 <= 1
d5_6 - d5_6.0 >= 0
d5_6.0 <= 1
d5_5 - d5_5.0 >= 0
d5_5.0 <= 1
d6_7 - d6_7.0 >= 0
d6_7.0 <= 1
d6_10 - d6_10.0 >= 0
d6_10.0 <= 1
d7_8 - d7_8.0 >= 0
d7_8.0 <= 1
d8_9 - d8_9.0 >= 0
d8_9.0 <= 1
d8_8 - d8_8.0 >= 0
d8_8.0 <= 1
d9_12 - d9_12.0 >= 0
d9_12.0 <= 1
d10_11 - d10_11.0 >= 0
d10_11.0 <= 1
d11_12 - d11_12.0 >= 0
d11_12.0 <= 1
d11_11 - d11_11.0 >= 0
d11_11.0 <= 1
d12_21 - d12_21.0 >= 0
d12_21.0 <= 1
d13_24 - d13_24.0 >= 0
d13_24.0 <= 1
d14_27 - d14_27.0 >= 0
d14_27.0 <= 1
d15_32 - d15_32.0 >= 0
d15_32.0 <= 1
d16_37 - d16_37.0 >= 0
d16_37.0 <= 1
d17_41 - d17_41.0 >= 0
d17_41.0 <= 1
d18_44 - d18_44.0 >= 0
d18_44.0 <= 1
d19_46 - d19_46.0 >= 0
d19_46.0 <= 1
d21_22 - d21_22.0 >= 0
d21_22.0 <= 1
d22_23 - d22_23.0 >= 0
d22_23.0 <= 1
d22_22 - d22_22.0 >= 0
d22_22.0 <= 1
d23_13 - d23_13.0 >= 0
d23_13.0 <= 1
d24_25 - d24_25.0 >= 0
d24_25.0 <= 1
d25_26 - d25_26.0 >= 0
d25_26.0 <= 1
d25_25 - d25_25.0 >= 0
d25_25.0 <= 1
d26_14 - d26_14.0 >= 0
d26_14.0 <= 1
d27_28 - d27_28.0 >= 0
d27_28.0 <= 1
d28_29 - d28_29.0 >= 0
d28_29.0 <= 1
d29_30 - d29_30.0 >= 0
d29_30.0 <= 1
d29_29 - d29_29.0 >= 0
d29_29.0 <= 1
d30_31 - d30_31.0 >= 0
d30_31.0 <= 1
d30_28 - d30_28.0 >= 0
d30_28.0 <= 1
d31_15 - d31_15.0 >= 0
d31_15.0 <= 1
d32_33 - d32_33.0 >= 0
d32_33.0 <= 1
d33_34 - d33_34.0 >= 0
d33_34.0 <= 1
d34_35 - d34_35.0 >= 0
d34_35.0 <= 1
d34_34 - d34_34.0 >= 0
d34_34.0 <= 1
d35_36 - d35_36.0 >= 0
d35_36.0 <= 1
d35_33 - d35_33.0 >= 0
d35_33.0 <= 1
d36_16 - d36_16.0 >= 0
d36_16.0 <= 1
d37_38 - d37_38.0 >= 0
d37_38.0 <= 1
d37_40 - d37_40.0 >= 0
d37_40.0 <= 1
d38_39 - d38_39.0 >= 0
d38_39.0 <= 1
d39_40 - d39_40.0 >= 0
d39_40.0 <= 1
d39_39 - d39_39.0 >= 0
d39_39.0 <= 1
d40_17 - d40_17.0 >= 0
d40_17.0 <= 1
d41_42 - d41_42.0 >= 0
d41_42.0 <= 1
d42_43 - d42_43.0 >= 0
d42_43.0 <= 1
d42_42 - d42_42.0 >= 0
d42_42.0 <= 1
d43_18 - d43_18.0 >= 0
d43_18.0 <= 1
d44_45 - d44_45.0 >= 0
d44_45.0 <= 1
d44_44 - d44_44.0 >= 0
d44_44.0 <= 1
d45_19 - d45_19.0 >= 0
d45_19.0 <= 1
d46_47 - d46_47.0 >= 0
d46_47.0 <= 1
d47_48 - d47_48.0 >= 0
d47_48.0 <= 1
d48_49 - d48_49.0 >= 0
d48_49.0 <= 1
d49_50 - d49_50.0 >= 0
d49_50.0 <= 1
d49_49 - d49_49.0 >= 0
d49_49.0 <= 1
d50_51 - d50_51.0 >= 0
d50_51.0 <= 1
d50_48 - d50_48.0 >= 0
d50_48.0 <= 1
d51_52 - d51_52.0 >= 0
d51_52.0 <= 1
d51_47 - d51_47.0 >= 0
d51_47.0 <= 1
d52_20 - d52_20.0 >= 0
d52_20.0 <= 1

\ === infeasible path constraints ===

b21 = 1
b22 = 150
b23 = 1
b24 = 1
b25 = 150
b26 = 1
b27 = 1
b28 = 50
b29 = 2500
b30 = 50
b31 = 1
b32 = 1
b33 = 50
b34 = 800
b35 = 50
b36 = 1
b37 = 1
b38 = 1
b39 = 99
b40 = 1
b41 = 1
b42 = 50
b43 = 1
b44 = 17
b45 = 1
b46 = 1
b47 = 2
b48 = 16
b49 = 64
b50 = 16
b51 = 2
b52 = 1
b0 = 1
b1 = 0
b2 = 25
b3 = 0
b4 = 1
b5 = 25
b6 = 1
b7 = 0
b8 = 25
b9 = 0
b10 = 1
b11 = 25
b12 = 1
b13 = 1
b14 = 1
b15 = 1
b16 = 1
b17 = 1
b18 = 1
b19 = 1
b20 = 1

Generals

Sta
b0
d0_1
d0_4
b1
d1_2
b2
d2_3
d2_2
b3
d3_6
b4
d4_5
b5
d5_6
d5_5
b6
d6_7
d6_10
b7
d7_8
b8
d8_9
d8_8
b9
d9_12
b10
d10_11
b11
d11_12
d11_11
b12
d12_21
b13
d13_24
b14
d14_27
b15
d15_32
b16
d16_37
b17
d17_41
b18
d18_44
b19
d19_46
b20
b21
d21_22
b22
d22_23
d22_22
b23
d23_13
b24
d24_25
b25
d25_26
d25_25
b26
d26_14
b27
d27_28
b28
d28_29
b29
d29_30
d29_29
b30
d30_31
d30_28
b31
d31_15
b32
d32_33
b33
d33_34
b34
d34_35
d34_34
b35
d35_36
d35_33
b36
d36_16
b37
d37_38
d37_40
b38
d38_39
b39
d39_40
d39_39
b40
d40_17
b41
d41_42
b42
d42_43
d42_42
b43
d43_18
b44
d44_45
d44_44
b45
d45_19
b46
d46_47
b47
d47_48
b48
d48_49
b49
d49_50
d49_49
b50
d50_51
d50_48
b51
d51_52
d51_47
b52
d52_20

End
\ total_cons: 301 	total_vars: 125
