src/Chronos/4.1/benchmarks/edn/edn.out
sim-profile: SimpleScalar/PISA Tool Set version 3.0 of August, 2003.
Copyright (c) 1994-2003 by Todd M. Austin, Ph.D. and SimpleScalar, LLC.
All Rights Reserved. This version of SimpleScalar is licensed for academic
non-commercial use.  No portion of this work may be used by any commercial
entity, or for any commercial purpose, without the prior written permission
of SimpleScalar, LLC (info@simplescalar.com).

sim: command line: /home/sudiptac/sudiptac/Work/simplesim-3.0/sim-profile -pcstat sim_num_insn edn 

sim: simulation started @ Mon Jul 12 20:56:35 2010, options follow:

sim-profile: This simulator implements a functional simulator with
profiling support.  Run with the `-h' flag to see profiling options
available.

# -config                     # load configuration from a file
# -dumpconfig                 # dump configuration to a file
# -h                    false # print help message    
# -v                    false # verbose operation     
# -d                    false # enable debug message  
# -i                    false # start in Dlite debugger
-seed                       1 # random number generator seed (0 for timer seed)
# -q                    false # initialize and terminate immediately
# -chkpt               <null> # restore EIO trace execution from <fname>
# -redir:sim           <null> # redirect simulator output to file (non-interactive only)
# -redir:prog          <null> # redirect simulated program output to file
-nice                       0 # simulator scheduling priority
-max:inst                   0 # maximum number of inst's to execute
-all                    false # enable all profile options
-iclass                 false # enable instruction class profiling
-iprof                  false # enable instruction profiling
-brprof                 false # enable branch instruction profiling
-amprof                 false # enable address mode profiling
-segprof                false # enable load/store address segment profiling
-tsymprof               false # enable text symbol profiling
-taddrprof              false # enable text address profiling
-dsymprof               false # enable data symbol profiling
-internal               false # include compiler-internal symbols during symbol profiling
# -pcstat        sim_num_insn # profile stat(s) against text addr's (mult uses ok)

sim: ** starting functional simulation **

sim: ** simulation statistics **
sim_num_insn                  69679 # total number of instructions executed
sim_num_refs                  15957 # total number of loads and stores executed
sim_elapsed_time                  1 # total simulation time in seconds
sim_inst_rate            69679.0000 # simulation speed (in insts/sec)

sim_num_insn_by_pc     # total number of instructions executed (by text address)
sim_num_insn_by_pc.count = 1278
sim_num_insn_by_pc.total = 69678
sim_num_insn_by_pc.imin = 0x400140
sim_num_insn_by_pc.imax = 0x4066e0
sim_num_insn_by_pc.average =  54.5211
sim_num_insn_by_pc.std_dev = 266.4846
sim_num_insn_by_pc.overflows = 0
# pdf == prob dist fn, cdf == cumulative dist fn
#          index      count    pdf 
sim_num_insn_by_pc.start_dist
0x400140 1 0.00
0x400148 1 0.00
0x400150 1 0.00
0x400158 1 0.00
0x400160 1 0.00
0x400168 1 0.00
0x400170 1 0.00
0x400178 1 0.00
0x400180 1 0.00
0x400188 1 0.00
0x400190 1 0.00
0x400198 1 0.00
0x4001a0 1 0.00
0x4001a8 1 0.00
0x4001b0 1 0.00
0x4001b8 1 0.00
0x4001c0 1 0.00
0x4001c8 1 0.00
0x4001d0 1 0.00
0x4001d8 1 0.00
0x4001e0 1 0.00
0x4001f0 1 0.00
0x4001f8 1 0.00
0x400200 1 0.00
0x400208 150 0.22
0x400210 150 0.22
0x400218 150 0.22
0x400220 150 0.22
0x400228 150 0.22
0x400230 150 0.22
0x400238 150 0.22
0x400240 150 0.22
0x400248 150 0.22
0x400250 150 0.22
0x400258 150 0.22
0x400260 150 0.22
0x400268 1 0.00
0x400270 1 0.00
0x400278 1 0.00
0x400280 150 0.22
0x400288 150 0.22
0x400290 150 0.22
0x400298 150 0.22
0x4002a0 150 0.22
0x4002a8 150 0.22
0x4002b0 150 0.22
0x4002b8 150 0.22
0x4002c0 150 0.22
0x4002c8 150 0.22
0x4002d0 150 0.22
0x4002d8 150 0.22
0x4002e0 150 0.22
0x4002e8 1 0.00
0x4002f0 1 0.00
0x4002f8 1 0.00
0x400300 1 0.00
0x400308 50 0.07
0x400310 50 0.07
0x400318 50 0.07
0x400320 2500 3.59
0x400328 2500 3.59
0x400330 2500 3.59
0x400338 2500 3.59
0x400340 2500 3.59
0x400348 2500 3.59
0x400350 2500 3.59
0x400358 2500 3.59
0x400360 2500 3.59
0x400368 2500 3.59
0x400370 2500 3.59
0x400378 2500 3.59
0x400380 50 0.07
0x400388 50 0.07
0x400390 50 0.07
0x400398 50 0.07
0x4003a0 50 0.07
0x4003a8 50 0.07
0x4003b0 1 0.00
0x4003b8 1 0.00
0x4003c0 1 0.00
0x4003c8 1 0.00
0x4003d0 1 0.00
0x4003d8 50 0.07
0x4003e0 50 0.07
0x4003e8 50 0.07
0x4003f0 50 0.07
0x4003f8 50 0.07
0x400400 800 1.15
0x400408 800 1.15
0x400410 800 1.15
0x400418 800 1.15
0x400420 800 1.15
0x400428 800 1.15
0x400430 800 1.15
0x400438 800 1.15
0x400440 800 1.15
0x400448 800 1.15
0x400450 800 1.15
0x400458 800 1.15
0x400460 800 1.15
0x400468 800 1.15
0x400470 800 1.15
0x400478 800 1.15
0x400480 800 1.15
0x400488 800 1.15
0x400490 800 1.15
0x400498 800 1.15
0x4004a0 800 1.15
0x4004a8 800 1.15
0x4004b0 800 1.15
0x4004b8 800 1.15
0x4004c0 800 1.15
0x4004c8 800 1.15
0x4004d0 50 0.07
0x4004d8 50 0.07
0x4004e0 50 0.07
0x4004e8 50 0.07
0x4004f0 50 0.07
0x4004f8 50 0.07
0x400500 50 0.07
0x400508 50 0.07
0x400510 50 0.07
0x400518 1 0.00
0x400520 1 0.00
0x400528 1 0.00
0x400530 1 0.00
0x400538 1 0.00
0x400540 1 0.00
0x400548 1 0.00
0x400550 1 0.00
0x400558 1 0.00
0x400560 1 0.00
0x400568 1 0.00
0x400570 1 0.00
0x400578 1 0.00
0x400580 1 0.00
0x400588 1 0.00
0x400590 1 0.00
0x400598 1 0.00
0x4005a0 99 0.14
0x4005a8 99 0.14
0x4005b0 99 0.14
0x4005b8 99 0.14
0x4005c0 99 0.14
0x4005c8 99 0.14
0x4005d0 99 0.14
0x4005d8 99 0.14
0x4005e0 99 0.14
0x4005e8 99 0.14
0x4005f0 99 0.14
0x4005f8 99 0.14
0x400600 99 0.14
0x400608 99 0.14
0x400610 99 0.14
0x400618 1 0.00
0x400620 1 0.00
0x400628 1 0.00
0x400630 1 0.00
0x400638 1 0.00
0x400640 1 0.00
0x400648 1 0.00
0x400650 1 0.00
0x400658 1 0.00
0x400660 1 0.00
0x400668 50 0.07
0x400670 50 0.07
0x400678 50 0.07
0x400680 50 0.07
0x400688 50 0.07
0x400690 50 0.07
0x400698 50 0.07
0x4006a0 50 0.07
0x4006a8 50 0.07
0x4006b0 50 0.07
0x4006b8 50 0.07
0x4006c0 50 0.07
0x4006c8 50 0.07
0x4006d0 50 0.07
0x4006d8 50 0.07
0x4006e0 50 0.07
0x4006e8 50 0.07
0x4006f0 50 0.07
0x4006f8 50 0.07
0x400700 50 0.07
0x400708 50 0.07
0x400710 50 0.07
0x400718 50 0.07
0x400720 50 0.07
0x400728 50 0.07
0x400730 50 0.07
0x400738 50 0.07
0x400740 50 0.07
0x400748 50 0.07
0x400750 1 0.00
0x400758 1 0.00
0x400760 17 0.02
0x400768 17 0.02
0x400770 17 0.02
0x400778 1 0.00
0x400780 1 0.00
0x400788 1 0.00
0x400790 1 0.00
0x400798 1 0.00
0x4007a0 1 0.00
0x4007a8 1 0.00
0x4007b0 1 0.00
0x4007b8 1 0.00
0x4007c0 1 0.00
0x4007c8 1 0.00
0x4007d0 1 0.00
0x4007d8 1 0.00
0x4007e0 1 0.00
0x4007e8 1 0.00
0x4007f0 1 0.00
0x4007f8 1 0.00
0x400800 1 0.00
0x400808 2 0.00
0x400810 2 0.00
0x400818 2 0.00
0x400820 2 0.00
0x400828 2 0.00
0x400830 2 0.00
0x400838 2 0.00
0x400840 2 0.00
0x400848 2 0.00
0x400850 2 0.00
0x400858 2 0.00
0x400860 2 0.00
0x400868 2 0.00
0x400870 2 0.00
0x400878 2 0.00
0x400880 2 0.00
0x400888 2 0.00
0x400890 16 0.02
0x400898 64 0.09
0x4008a0 64 0.09
0x4008a8 64 0.09
0x4008b0 64 0.09
0x4008b8 64 0.09
0x4008c0 64 0.09
0x4008c8 64 0.09
0x4008d0 64 0.09
0x4008d8 64 0.09
0x4008e0 64 0.09
0x4008e8 64 0.09
0x4008f0 64 0.09
0x4008f8 64 0.09
0x400900 64 0.09
0x400908 64 0.09
0x400910 64 0.09
0x400918 64 0.09
0x400920 64 0.09
0x400928 64 0.09
0x400930 64 0.09
0x400938 64 0.09
0x400940 64 0.09
0x400948 64 0.09
0x400950 64 0.09
0x400958 64 0.09
0x400960 64 0.09
0x400968 64 0.09
0x400970 64 0.09
0x400978 64 0.09
0x400980 64 0.09
0x400988 16 0.02
0x400990 16 0.02
0x400998 16 0.02
0x4009a0 16 0.02
0x4009a8 16 0.02
0x4009b0 16 0.02
0x4009b8 16 0.02
0x4009c0 16 0.02
0x4009c8 16 0.02
0x4009d0 16 0.02
0x4009d8 16 0.02
0x4009e0 16 0.02
0x4009e8 16 0.02
0x4009f0 16 0.02
0x4009f8 16 0.02
0x400a00 16 0.02
0x400a08 16 0.02
0x400a10 16 0.02
0x400a18 16 0.02
0x400a20 16 0.02
0x400a28 16 0.02
0x400a30 16 0.02
0x400a38 16 0.02
0x400a40 16 0.02
0x400a48 16 0.02
0x400a50 16 0.02
0x400a58 16 0.02
0x400a60 16 0.02
0x400a68 16 0.02
0x400a70 16 0.02
0x400a78 16 0.02
0x400a80 16 0.02
0x400a88 16 0.02
0x400a90 16 0.02
0x400a98 16 0.02
0x400aa0 16 0.02
0x400aa8 16 0.02
0x400ab0 16 0.02
0x400ab8 16 0.02
0x400ac0 16 0.02
0x400ac8 16 0.02
0x400ad0 16 0.02
0x400ad8 16 0.02
0x400ae0 16 0.02
0x400ae8 16 0.02
0x400af0 16 0.02
0x400af8 16 0.02
0x400b00 16 0.02
0x400b08 16 0.02
0x400b10 16 0.02
0x400b18 16 0.02
0x400b20 16 0.02
0x400b28 16 0.02
0x400b30 16 0.02
0x400b38 16 0.02
0x400b40 16 0.02
0x400b48 16 0.02
0x400b50 16 0.02
0x400b58 16 0.02
0x400b60 16 0.02
0x400b68 16 0.02
0x400b70 16 0.02
0x400b78 16 0.02
0x400b80 16 0.02
0x400b88 16 0.02
0x400b90 16 0.02
0x400b98 16 0.02
0x400ba0 16 0.02
0x400ba8 16 0.02
0x400bb0 16 0.02
0x400bb8 16 0.02
0x400bc0 16 0.02
0x400bc8 16 0.02
0x400bd0 16 0.02
0x400bd8 16 0.02
0x400be0 16 0.02
0x400be8 16 0.02
0x400bf0 16 0.02
0x400bf8 16 0.02
0x400c00 16 0.02
0x400c08 16 0.02
0x400c10 16 0.02
0x400c18 16 0.02
0x400c20 16 0.02
0x400c28 16 0.02
0x400c30 16 0.02
0x400c38 16 0.02
0x400c40 16 0.02
0x400c48 16 0.02
0x400c50 16 0.02
0x400c58 16 0.02
0x400c60 16 0.02
0x400c68 16 0.02
0x400c70 16 0.02
0x400c78 16 0.02
0x400c80 16 0.02
0x400c88 16 0.02
0x400c90 16 0.02
0x400c98 16 0.02
0x400ca0 16 0.02
0x400ca8 16 0.02
0x400cb0 16 0.02
0x400cb8 16 0.02
0x400cc0 16 0.02
0x400cc8 16 0.02
0x400cd0 16 0.02
0x400cd8 16 0.02
0x400ce0 16 0.02
0x400ce8 16 0.02
0x400cf0 16 0.02
0x400cf8 16 0.02
0x400d00 16 0.02
0x400d08 16 0.02
0x400d10 16 0.02
0x400d18 16 0.02
0x400d20 16 0.02
0x400d28 16 0.02
0x400d30 16 0.02
0x400d38 16 0.02
0x400d40 16 0.02
0x400d48 16 0.02
0x400d50 16 0.02
0x400d58 16 0.02
0x400d60 16 0.02
0x400d68 16 0.02
0x400d70 16 0.02
0x400d78 16 0.02
0x400d80 16 0.02
0x400d88 16 0.02
0x400d90 16 0.02
0x400d98 16 0.02
0x400da0 16 0.02
0x400da8 16 0.02
0x400db0 16 0.02
0x400db8 16 0.02
0x400dc0 16 0.02
0x400dc8 16 0.02
0x400dd0 16 0.02
0x400dd8 16 0.02
0x400de0 16 0.02
0x400de8 16 0.02
0x400df0 16 0.02
0x400df8 16 0.02
0x400e00 16 0.02
0x400e08 16 0.02
0x400e10 16 0.02
0x400e18 16 0.02
0x400e20 16 0.02
0x400e28 16 0.02
0x400e30 2 0.00
0x400e38 2 0.00
0x400e40 2 0.00
0x400e48 2 0.00
0x400e50 2 0.00
0x400e58 2 0.00
0x400e60 2 0.00
0x400e68 2 0.00
0x400e70 2 0.00
0x400e78 2 0.00
0x400e80 1 0.00
0x400e88 1 0.00
0x400e90 1 0.00
0x400e98 1 0.00
0x400ea0 1 0.00
0x400ea8 1 0.00
0x400eb0 1 0.00
0x400eb8 1 0.00
0x400ec0 1 0.00
0x400ec8 1 0.00
0x400ed0 1 0.00
0x400ed8 1 0.00
0x400ee0 1 0.00
0x400ee8 1 0.00
0x400ef0 1 0.00
0x400ef8 1 0.00
0x400f00 1 0.00
0x400f08 1 0.00
0x400f10 1 0.00
0x400f18 1 0.00
0x400f20 1 0.00
0x400f28 1 0.00
0x400fd8 1 0.00
0x400fe0 25 0.04
0x400fe8 25 0.04
0x400ff0 25 0.04
0x400ff8 25 0.04
0x401000 25 0.04
0x401008 25 0.04
0x401010 25 0.04
0x401018 25 0.04
0x401020 25 0.04
0x401028 25 0.04
0x401030 25 0.04
0x401038 1 0.00
0x401040 1 0.00
0x401048 1 0.00
0x401050 1 0.00
0x401058 1 0.00
0x401060 1 0.00
0x401110 1 0.00
0x401118 25 0.04
0x401120 25 0.04
0x401128 25 0.04
0x401130 25 0.04
0x401138 25 0.04
0x401140 25 0.04
0x401148 25 0.04
0x401150 25 0.04
0x401158 25 0.04
0x401160 25 0.04
0x401168 25 0.04
0x401170 1 0.00
0x401178 1 0.00
0x401180 1 0.00
0x401188 1 0.00
0x401190 1 0.00
0x401198 1 0.00
0x4011a0 1 0.00
0x4011a8 1 0.00
0x4011b0 1 0.00
0x4011b8 1 0.00
0x4011c0 1 0.00
0x4011c8 1 0.00
0x4011d0 1 0.00
0x4011d8 1 0.00
0x4011e0 1 0.00
0x4011e8 1 0.00
0x4011f0 1 0.00
0x4011f8 1 0.00
0x401200 1 0.00
0x401208 1 0.00
0x401210 1 0.00
0x401218 1 0.00
0x401220 1 0.00
0x401228 1 0.00
0x401230 1 0.00
0x401238 1 0.00
0x401240 1 0.00
0x401248 1 0.00
0x401250 1 0.00
0x401258 1 0.00
0x401260 1 0.00
0x401268 1 0.00
0x401270 1 0.00
0x401278 1 0.00
0x401280 1 0.00
0x401288 1 0.00
0x401290 1 0.00
0x401298 1 0.00
0x4012a0 1 0.00
0x4012a8 1 0.00
0x4012b0 1 0.00
0x4012b8 1 0.00
0x4012c0 1 0.00
0x4012c8 1 0.00
0x4012d0 1 0.00
0x4012d8 1 0.00
0x4012e0 1 0.00
0x4012e8 1 0.00
0x4012f0 1 0.00
0x4012f8 1 0.00
0x401300 1 0.00
0x401308 1 0.00
0x401310 1 0.00
0x401318 1 0.00
0x401320 1 0.00
0x401328 1 0.00
0x401330 1 0.00
0x401338 1 0.00
0x401340 1 0.00
0x401348 1 0.00
0x401350 1 0.00
0x401358 1 0.00
0x401360 1 0.00
0x401368 1 0.00
0x401370 1 0.00
0x401378 1 0.00
0x401380 1 0.00
0x401388 1 0.00
0x401390 1 0.00
0x401398 1 0.00
0x4013a0 1 0.00
0x4013a8 1 0.00
0x4013b0 1 0.00
0x4013b8 1 0.00
0x4013c0 1 0.00
0x4013c8 1 0.00
0x4013d0 1 0.00
0x401480 1 0.00
0x401488 1 0.00
0x401490 1 0.00
0x401498 1 0.00
0x4014a0 1 0.00
0x4014f0 1 0.00
0x4014f8 1 0.00
0x401500 1 0.00
0x401508 1 0.00
0x401510 1 0.00
0x401518 1 0.00
0x401520 1 0.00
0x401528 1 0.00
0x401530 1 0.00
0x401538 1 0.00
0x401540 1 0.00
0x401548 1 0.00
0x401558 1 0.00
0x401560 1 0.00
0x401568 1 0.00
0x401570 1 0.00
0x401578 1 0.00
0x401790 1 0.00
0x401798 1 0.00
0x4017a0 1 0.00
0x4017a8 1 0.00
0x4017b0 1 0.00
0x4017b8 1 0.00
0x4017c0 1 0.00
0x4017e0 1 0.00
0x401800 1 0.00
0x401808 1 0.00
0x401810 1 0.00
0x401818 1 0.00
0x401820 1 0.00
0x401828 1 0.00
0x401848 1 0.00
0x401850 1 0.00
0x401858 1 0.00
0x401860 1 0.00
0x401880 1 0.00
0x401888 1 0.00
0x401890 1 0.00
0x401898 1 0.00
0x4018a0 1 0.00
0x4018a8 1 0.00
0x4018b0 1 0.00
0x4018b8 1 0.00
0x4018c0 1 0.00
0x4018c8 1 0.00
0x4018d0 1 0.00
0x4018d8 1 0.00
0x4018e0 1 0.00
0x4018e8 1 0.00
0x4018f0 1 0.00
0x4018f8 1 0.00
0x401900 1 0.00
0x401908 1 0.00
0x401910 1 0.00
0x401918 1 0.00
0x401920 1 0.00
0x401928 1 0.00
0x401930 1 0.00
0x401938 1 0.00
0x401948 1 0.00
0x401950 1 0.00
0x401958 1 0.00
0x401960 1 0.00
0x401968 1 0.00
0x401970 1 0.00
0x401978 1 0.00
0x401980 1 0.00
0x401988 1 0.00
0x401990 1 0.00
0x401998 1 0.00
0x4019a0 1 0.00
0x4019a8 1 0.00
0x4019b0 1 0.00
0x4019b8 1 0.00
0x4019c0 1 0.00
0x4019c8 1 0.00
0x4019d0 1 0.00
0x4019d8 1 0.00
0x4019e0 1 0.00
0x4019e8 1 0.00
0x4019f0 1 0.00
0x4019f8 1 0.00
0x401a00 1 0.00
0x401a08 1 0.00
0x401a18 1 0.00
0x401a20 1 0.00
0x401a28 1 0.00
0x401a30 1 0.00
0x401a38 1 0.00
0x401a40 1 0.00
0x401a48 1 0.00
0x401a50 1 0.00
0x401a58 1 0.00
0x401a60 1 0.00
0x401a68 1 0.00
0x401a70 1 0.00
0x401a78 1 0.00
0x401a80 1 0.00
0x401a88 1 0.00
0x401a90 1 0.00
0x401a98 1 0.00
0x401ac8 1 0.00
0x401ad0 1 0.00
0x401ae0 1 0.00
0x401ae8 1 0.00
0x401b00 1 0.00
0x401b08 1 0.00
0x401b10 1 0.00
0x401b18 1 0.00
0x401b28 1 0.00
0x401b30 1 0.00
0x401b38 1 0.00
0x401b40 1 0.00
0x401b48 1 0.00
0x401dd0 1 0.00
0x401dd8 1 0.00
0x401de0 1 0.00
0x401de8 1 0.00
0x401df8 1 0.00
0x401e00 1 0.00
0x401e08 1 0.00
0x401e10 1 0.00
0x401e18 1 0.00
0x401e20 1 0.00
0x401e28 1 0.00
0x401e30 1 0.00
0x401e38 1 0.00
0x401e40 1 0.00
0x401e48 1 0.00
0x401e50 1 0.00
0x401e58 1 0.00
0x401e60 1 0.00
0x401e68 1 0.00
0x401e70 1 0.00
0x401e78 1 0.00
0x401e80 1 0.00
0x401e88 1 0.00
0x401e90 1 0.00
0x401e98 1 0.00
0x401ea0 1 0.00
0x401eb8 1 0.00
0x401ec0 1 0.00
0x401ec8 1 0.00
0x401ed0 1 0.00
0x401ed8 1 0.00
0x401ee0 1 0.00
0x401ef0 1 0.00
0x401ef8 1 0.00
0x402290 1 0.00
0x402298 1 0.00
0x4022a0 1 0.00
0x4022a8 1 0.00
0x4022b0 1 0.00
0x4022b8 1 0.00
0x4022c0 1 0.00
0x4022c8 1 0.00
0x4022d0 1 0.00
0x4022d8 1 0.00
0x4022e0 1 0.00
0x4022e8 1 0.00
0x4022f0 1 0.00
0x4022f8 1 0.00
0x402300 1 0.00
0x402308 1 0.00
0x402310 1 0.00
0x402318 1 0.00
0x402320 1 0.00
0x402328 1 0.00
0x402330 1 0.00
0x402338 1 0.00
0x402340 1 0.00
0x402348 1 0.00
0x402350 1 0.00
0x402358 1 0.00
0x402440 1 0.00
0x402448 1 0.00
0x402450 1 0.00
0x402458 1 0.00
0x402460 1 0.00
0x402468 1 0.00
0x402470 1 0.00
0x402480 1 0.00
0x402488 1 0.00
0x402490 1 0.00
0x402498 1 0.00
0x4024a0 1 0.00
0x4024a8 1 0.00
0x4024b0 1 0.00
0x4024b8 1 0.00
0x4024c0 1 0.00
0x4024c8 1 0.00
0x4024d0 1 0.00
0x4024d8 1 0.00
0x4024e0 1 0.00
0x4024e8 1 0.00
0x4024f0 1 0.00
0x4024f8 1 0.00
0x402500 1 0.00
0x402798 1 0.00
0x4027a0 1 0.00
0x4027a8 1 0.00
0x4027b0 1 0.00
0x4027b8 1 0.00
0x4027c0 1 0.00
0x4027c8 1 0.00
0x4027d0 1 0.00
0x4027e0 4 0.01
0x4027e8 4 0.01
0x4027f0 4 0.01
0x4027f8 4 0.01
0x402800 4 0.01
0x402808 4 0.01
0x402810 4 0.01
0x402818 1 0.00
0x402820 1 0.00
0x402828 1 0.00
0x402830 1 0.00
0x402838 1 0.00
0x402840 1 0.00
0x402848 3 0.00
0x402850 3 0.00
0x402868 3 0.00
0x402870 3 0.00
0x402878 3 0.00
0x402880 3 0.00
0x402888 3 0.00
0x402890 3 0.00
0x402898 1 0.00
0x4028a0 1 0.00
0x4028a8 3 0.00
0x4028b0 3 0.00
0x4028b8 3 0.00
0x4028c0 3 0.00
0x4028d8 3 0.00
0x4028e0 3 0.00
0x4028e8 3 0.00
0x4028f0 3 0.00
0x402918 3 0.00
0x402920 3 0.00
0x402928 3 0.00
0x402930 2 0.00
0x402938 2 0.00
0x402940 2 0.00
0x402948 2 0.00
0x402950 2 0.00
0x402968 3 0.00
0x402970 3 0.00
0x402978 1 0.00
0x402980 1 0.00
0x402988 1 0.00
0x402990 1 0.00
0x402998 3 0.00
0x4029a0 3 0.00
0x4029a8 2 0.00
0x4029b0 2 0.00
0x4029b8 2 0.00
0x4029c0 2 0.00
0x4029c8 1 0.00
0x4029d0 1 0.00
0x4029d8 1 0.00
0x4029e0 1 0.00
0x4029e8 1 0.00
0x402a08 1 0.00
0x402a10 3 0.00
0x402a18 3 0.00
0x402a20 3 0.00
0x402a28 4 0.01
0x402a30 4 0.01
0x402a38 4 0.01
0x402a40 4 0.01
0x402a48 4 0.01
0x402a50 4 0.01
0x402a80 1 0.00
0x402a88 1 0.00
0x402a90 1 0.00
0x402a98 1 0.00
0x402ad0 1 0.00
0x402ad8 1 0.00
0x402ae0 1 0.00
0x402ae8 1 0.00
0x402af0 1 0.00
0x402af8 1 0.00
0x402b00 1 0.00
0x402b08 1 0.00
0x402b10 1 0.00
0x402b18 1 0.00
0x402b20 1 0.00
0x402b28 1 0.00
0x402b30 1 0.00
0x402b38 1 0.00
0x402b70 1 0.00
0x402b78 1 0.00
0x402b80 1 0.00
0x402b88 1 0.00
0x402b90 1 0.00
0x402b98 1 0.00
0x402ba0 1 0.00
0x402ba8 1 0.00
0x402bb0 1 0.00
0x402bb8 1 0.00
0x402bc0 1 0.00
0x402bc8 1 0.00
0x402bd0 1 0.00
0x402bd8 1 0.00
0x402be0 1 0.00
0x402be8 1 0.00
0x402bf0 1 0.00
0x402c08 1 0.00
0x402c10 1 0.00
0x402c18 1 0.00
0x402c20 3 0.00
0x402c28 3 0.00
0x402c30 3 0.00
0x402c38 3 0.00
0x402c40 3 0.00
0x402c48 3 0.00
0x402c50 3 0.00
0x402c58 3 0.00
0x402c60 3 0.00
0x402c68 3 0.00
0x402c70 4 0.01
0x402c78 4 0.01
0x402c80 4 0.01
0x402c88 4 0.01
0x402c90 4 0.01
0x402c98 4 0.01
0x402ca0 4 0.01
0x402ca8 4 0.01
0x402cb0 4 0.01
0x402cb8 4 0.01
0x402ce8 4 0.01
0x402cf0 4 0.01
0x402cf8 4 0.01
0x402d00 390 0.56
0x402d08 390 0.56
0x402d10 390 0.56
0x402d18 390 0.56
0x402d20 390 0.56
0x402d28 390 0.56
0x402d30 390 0.56
0x402d38 390 0.56
0x402d40 390 0.56
0x402d48 390 0.56
0x402d50 390 0.56
0x402d58 390 0.56
0x402d60 4 0.01
0x402d68 4 0.01
0x402d70 4 0.01
0x402d78 12 0.02
0x402d80 12 0.02
0x402d88 12 0.02
0x402d90 12 0.02
0x402d98 4 0.01
0x402da0 4 0.01
0x402dc8 4 0.01
0x402dd0 4 0.01
0x402fa0 1 0.00
0x402fa8 1 0.00
0x402fb0 1 0.00
0x402fb8 1 0.00
0x402fc0 1 0.00
0x402fc8 1 0.00
0x402fd0 1 0.00
0x402fd8 1 0.00
0x402fe0 1 0.00
0x402fe8 1 0.00
0x402ff8 1 0.00
0x403000 1 0.00
0x403008 1 0.00
0x403010 1 0.00
0x403018 1 0.00
0x403020 1 0.00
0x403028 1 0.00
0x403030 1 0.00
0x403038 1 0.00
0x403040 1 0.00
0x403048 1 0.00
0x403050 1 0.00
0x403058 1 0.00
0x403060 1 0.00
0x403068 1 0.00
0x403070 1 0.00
0x403078 1 0.00
0x403080 1 0.00
0x403088 1 0.00
0x403090 1 0.00
0x403098 1 0.00
0x4030a0 1 0.00
0x4030a8 1 0.00
0x4030b0 1 0.00
0x4030b8 1 0.00
0x403108 1 0.00
0x403110 1 0.00
0x403118 1 0.00
0x403120 1 0.00
0x403128 1 0.00
0x403130 1 0.00
0x403138 1 0.00
0x403150 1 0.00
0x403158 1 0.00
0x403160 1 0.00
0x403168 1 0.00
0x403170 1 0.00
0x403178 1 0.00
0x403180 1 0.00
0x403188 1 0.00
0x403190 1 0.00
0x403198 1 0.00
0x4031a0 1 0.00
0x4031a8 1 0.00
0x4031b0 1 0.00
0x403200 1 0.00
0x403208 1 0.00
0x403210 1 0.00
0x403218 1 0.00
0x403220 1 0.00
0x403228 1 0.00
0x403230 1 0.00
0x403238 1 0.00
0x403240 1 0.00
0x403248 1 0.00
0x403250 1 0.00
0x403258 1 0.00
0x403260 1 0.00
0x403268 1 0.00
0x403270 1 0.00
0x403278 1 0.00
0x403280 1 0.00
0x403288 1 0.00
0x403290 1 0.00
0x403298 1 0.00
0x4032a0 1 0.00
0x4032a8 1 0.00
0x4032b0 1 0.00
0x4032b8 1 0.00
0x4032c0 1 0.00
0x4032c8 1 0.00
0x4032d0 1 0.00
0x4032d8 1 0.00
0x403390 1 0.00
0x403398 1 0.00
0x4033a0 1 0.00
0x4033a8 1 0.00
0x4033b0 1 0.00
0x403500 1 0.00
0x403508 1 0.00
0x403818 1 0.00
0x403820 1 0.00
0x403828 1 0.00
0x403830 1 0.00
0x403838 1 0.00
0x403840 1 0.00
0x403848 1 0.00
0x403850 1 0.00
0x403858 1 0.00
0x403860 1 0.00
0x403868 1 0.00
0x403870 1 0.00
0x403898 1 0.00
0x4038a0 1 0.00
0x4038d0 1 0.00
0x4038d8 1 0.00
0x4038e0 1 0.00
0x4038e8 1 0.00
0x403d18 2 0.00
0x403d20 2 0.00
0x403d28 2 0.00
0x403d30 2 0.00
0x403d38 2 0.00
0x403d40 2 0.00
0x403d48 2 0.00
0x403d50 2 0.00
0x403d58 2 0.00
0x403d60 2 0.00
0x403d68 2 0.00
0x403d70 2 0.00
0x403d78 2 0.00
0x403d80 2 0.00
0x403d88 2 0.00
0x403d90 2 0.00
0x403d98 2 0.00
0x403da0 2 0.00
0x403da8 2 0.00
0x403db0 2 0.00
0x403db8 2 0.00
0x403dc0 2 0.00
0x403dc8 2 0.00
0x403dd0 2 0.00
0x403dd8 2 0.00
0x403de0 2 0.00
0x403de8 2 0.00
0x403df0 2 0.00
0x403fa8 2 0.00
0x403fb0 2 0.00
0x403fb8 1 0.00
0x403fc0 1 0.00
0x403fc8 1 0.00
0x403fd0 1 0.00
0x403fd8 1 0.00
0x403fe0 1 0.00
0x403fe8 1 0.00
0x404050 2 0.00
0x404058 2 0.00
0x404060 2 0.00
0x404068 2 0.00
0x4040a0 2 0.00
0x4040a8 2 0.00
0x4040b0 2 0.00
0x4040b8 2 0.00
0x4040c0 2 0.00
0x4040c8 2 0.00
0x4040d0 2 0.00
0x4040d8 2 0.00
0x4040e0 2 0.00
0x4040e8 2 0.00
0x4040f0 2 0.00
0x4043f0 2 0.00
0x4043f8 2 0.00
0x404400 2 0.00
0x404408 2 0.00
0x404410 2 0.00
0x404418 2 0.00
0x404420 2 0.00
0x404428 2 0.00
0x404430 2 0.00
0x404448 2 0.00
0x404450 2 0.00
0x404458 2 0.00
0x404460 2 0.00
0x404468 2 0.00
0x404470 2 0.00
0x404478 2 0.00
0x404480 2 0.00
0x404488 2 0.00
0x404490 2 0.00
0x404498 2 0.00
0x404930 2 0.00
0x404938 2 0.00
0x404940 2 0.00
0x404948 2 0.00
0x404950 2 0.00
0x404958 2 0.00
0x404960 2 0.00
0x404968 2 0.00
0x404970 2 0.00
0x404978 2 0.00
0x404980 2 0.00
0x404988 2 0.00
0x404990 2 0.00
0x404998 2 0.00
0x4049a0 2 0.00
0x4049b8 2 0.00
0x4049c0 2 0.00
0x4049c8 2 0.00
0x4049d0 2 0.00
0x4049d8 2 0.00
0x4049e0 2 0.00
0x4049e8 2 0.00
0x404a10 2 0.00
0x404a18 2 0.00
0x404a20 2 0.00
0x404a28 2 0.00
0x404a30 2 0.00
0x404a68 2 0.00
0x404a70 2 0.00
0x404a78 2 0.00
0x404a80 2 0.00
0x404a88 2 0.00
0x404a90 2 0.00
0x404a98 2 0.00
0x404aa0 2 0.00
0x404aa8 2 0.00
0x404ab0 2 0.00
0x404ab8 2 0.00
0x404ac0 2 0.00
0x404ac8 2 0.00
0x404ad0 2 0.00
0x404ad8 2 0.00
0x404ae0 2 0.00
0x404ae8 2 0.00
0x404af0 2 0.00
0x404af8 2 0.00
0x404b00 2 0.00
0x404b08 2 0.00
0x404b10 2 0.00
0x404b18 2 0.00
0x404b20 2 0.00
0x404b28 2 0.00
0x404b30 2 0.00
0x404b38 2 0.00
0x404b40 2 0.00
0x404b48 2 0.00
0x404b50 2 0.00
0x404b58 1 0.00
0x404b60 1 0.00
0x404b78 1 0.00
0x404b80 1 0.00
0x404b88 1 0.00
0x404b90 1 0.00
0x404b98 1 0.00
0x404ba0 1 0.00
0x404ba8 1 0.00
0x404be0 1 0.00
0x404be8 1 0.00
0x404bf0 1 0.00
0x404c18 2 0.00
0x404c20 2 0.00
0x404c28 2 0.00
0x404c30 2 0.00
0x404c38 2 0.00
0x404c40 2 0.00
0x404c48 2 0.00
0x404c50 2 0.00
0x404c58 2 0.00
0x404c88 2 0.00
0x404d50 2 0.00
0x404d58 2 0.00
0x404d60 2 0.00
0x404d88 2 0.00
0x404d90 2 0.00
0x404da0 2 0.00
0x404da8 2 0.00
0x404db0 2 0.00
0x404db8 2 0.00
0x404dc0 2 0.00
0x404dc8 2 0.00
0x404df8 2 0.00
0x404e00 2 0.00
0x404e08 2 0.00
0x404e10 2 0.00
0x404e28 2 0.00
0x404e30 2 0.00
0x404e38 2 0.00
0x404e40 2 0.00
0x404e48 2 0.00
0x404e50 2 0.00
0x404e58 2 0.00
0x404e60 2 0.00
0x4053f8 3 0.00
0x405400 3 0.00
0x405408 3 0.00
0x405410 3 0.00
0x405418 3 0.00
0x405420 3 0.00
0x405428 3 0.00
0x405430 3 0.00
0x405438 3 0.00
0x405440 3 0.00
0x405448 3 0.00
0x405450 3 0.00
0x405458 3 0.00
0x405460 3 0.00
0x405468 3 0.00
0x405610 2 0.00
0x405618 2 0.00
0x405620 2 0.00
0x405628 2 0.00
0x405630 2 0.00
0x405638 2 0.00
0x405ab0 3 0.00
0x405ab8 3 0.00
0x405ac0 3 0.00
0x405ac8 3 0.00
0x405ae0 3 0.00
0x405ae8 3 0.00
0x405af0 3 0.00
0x405af8 3 0.00
0x405b00 3 0.00
0x405b08 3 0.00
0x405b10 3 0.00
0x405b18 3 0.00
0x405b20 3 0.00
0x405b28 3 0.00
0x405b30 3 0.00
0x406390 2 0.00
0x406398 2 0.00
0x4063a0 2 0.00
0x4063a8 2 0.00
0x4063b0 2 0.00
0x4063b8 2 0.00
0x4063c0 2 0.00
0x4063c8 2 0.00
0x4063d0 2 0.00
0x4063d8 2 0.00
0x4063e0 2 0.00
0x4063e8 1 0.00
0x4063f0 1 0.00
0x4063f8 1 0.00
0x406400 1 0.00
0x406408 1 0.00
0x406410 1 0.00
0x406418 1 0.00
0x406420 1 0.00
0x406448 1 0.00
0x406450 1 0.00
0x406490 1 0.00
0x406498 1 0.00
0x4064a0 2 0.00
0x4064a8 2 0.00
0x4064b0 2 0.00
0x4064b8 2 0.00
0x4064c0 2 0.00
0x4065a0 2 0.00
0x4065a8 2 0.00
0x4065b0 2 0.00
0x4065b8 2 0.00
0x4065c0 2 0.00
0x406650 3 0.00
0x406658 3 0.00
0x406660 3 0.00
0x406670 3 0.00
0x406678 3 0.00
0x406680 3 0.00
0x406688 3 0.00
0x406690 3 0.00
0x406698 3 0.00
0x4066c0 1 0.00
0x4066c8 1 0.00
0x4066d0 1 0.00
0x4066d8 1 0.00
0x4066e0 1 0.00
sim_num_insn_by_pc.end_dist

ld_text_base             0x00400000 # program text (code) segment base
ld_text_size                  26656 # program text (code) size in bytes
ld_data_base             0x10000000 # program initialized data segment base
ld_data_size                   4096 # program init'ed `.data' and uninit'ed `.bss' size in bytes
ld_stack_base            0x7fffc000 # program stack segment base (highest address in stack)
ld_stack_size                 16384 # program initial stack size
ld_prog_entry            0x00400140 # program entry point (initial PC)
ld_environ_base          0x7fff8000 # program environment base address address
ld_target_big_endian              0 # target executable endian-ness, non-zero if big endian
mem.page_count                   13 # total number of pages allocated
mem.page_mem                    52k # total size of memory pages allocated
mem.ptab_misses                  13 # total first level page table misses
mem.ptab_accesses            479118 # total page table accesses
mem.ptab_miss_rate           0.0000 # first level page table miss rate

+--------------------------------------------------------------+
| effective code range:         [0, fffffff8]                  |
| effective bpred count:        0                              |
| effective sim cycles:         0                              |
| effective bpred misses:       0                              |
| effective icache misses:      0                              |
+--------------------------------------------------------------+

